benchmarks_vrp/CMT2/fixed_c_size/CMT2_1.vrp
NAME: CMT2_1
TYPE: CVRP
COMMENT: 835.26 - Cluster Nr.1
DIMENSION: 14
CAPACITY: 140
EDGE_WEIGHT_TYPE: EUC_2D
NODE_COORD_TYPE: TWOD_COORDS
NODE_COORD_SECTION: 
5 52 26
9 44 13
14 40 20
11 45 35
3 36 6
13 40 40
4 35 16
7 36 26
8 40 37
6 43 26
2 48 21
12 50 30
10 38 33
1 33 34
DEPOT_SECTION: 
13
-1
DEMAND_SECTION: 
13 0
9 28
2 20
12 21
7 26
10 10
6 22
8 20
14 10
11 30
4 29
5 13
1 19
3 15
EOF
