benchmarks_vrp/CMT2/fixed_c_size/CMT2_1.tour
NAME: CMT2_1 solution
TYPE: TOUR
TOUR_SECTION:
13 10 14 9 3 4 7 1 -1
13 8 6 2 5 12 11 -1
-1
EOF